201
500
348	1
347	2
346	2
345	2
344	3
343	2
342	1
341	2
339	1
338	7
337	1
336	1
335	3
332	1
331	1
330	2
329	2
328	1
327	2
325	1
324	3
322	1
321	1
320	2
319	1
317	1
314	4
313	5
310	4
309	3
308	1
306	1
305	2
304	3
303	4
302	1
300	4
298	1
296	2
295	6
294	1
293	1
292	2
288	3
287	1
286	2
283	1
282	1
281	1
279	3
278	1
277	4
275	2
274	6
273	4
272	2
270	2
269	2
268	1
267	3
264	1
263	1
261	1
260	3
259	2
258	1
257	1
256	4
255	1
254	2
253	1
252	3
251	2
250	2
249	2
248	2
247	1
245	1
244	5
243	1
242	1
241	1
240	1
239	3
236	2
235	1
234	1
233	1
231	2
230	5
229	3
227	1
226	3
225	2
224	3
223	6
222	1
220	2
219	3
218	1
217	1
216	2
215	2
213	1
211	2
210	1
209	1
208	2
207	4
206	1
203	1
202	3
201	2
200	1
199	4
196	1
195	1
194	3
193	2
191	1
189	3
188	1
187	2
186	2
185	2
184	2
182	1
181	2
180	6
179	1
178	1
177	1
176	4
175	2
174	2
173	1
172	1
170	2
169	3
168	1
167	2
166	2
165	1
163	3
162	2
161	1
160	3
159	3
158	1
157	3
156	2
155	1
153	1
150	3
149	1
148	3
147	1
146	2
145	1
144	5
143	1
142	1
141	2
140	3
138	3
137	1
136	1
134	1
133	1
132	2
131	2
130	1
129	2
127	4
126	2
125	1
124	1
123	3
122	2
121	1
120	1
119	1
118	1
117	1
116	1
115	2
114	1
113	4
112	2
111	2
110	2
109	2
108	1
107	2
106	4
105	2
104	1
103	2
102	2
101	2
100	1
